78157.4
91 95 92 77 13 46 50 28 88 68 7 41 83 74 82 37 18 24 27 96 93 66 60 64 81 87 103 61 80 70 71 89 14 4 94 90 52 6 31 49 44 47 40 35 54 25 8 98 11 43 26 20 32 30 15 38 101 104 9 16 34 17 45 51 65 55 62 86 84 100 73 63 76 79 78 85 53 39 36 1 69 72 75 102 12 21 23 22 33 19 10 2 5 99 58 56 67 59 57 97 48 42 0 29 3 
